NAME : block_52.411809.tour
COMMENT : Length = 411809
COMMENT : Found by LKH-3 [Keld Helsgaun] Mon Feb  2 23:20:27 2026
TYPE : TOUR
DIMENSION : 117
TOUR_SECTION
104
105
95
96
2
117
1
86
76
75
64
54
53
42
32
31
22
23
14
7
8
15
24
34
33
43
44
55
65
66
56
45
35
25
16
9
4
10
17
26
36
46
57
67
78
77
87
88
98
97
106
107
113
114
108
99
89
79
68
58
47
37
27
18
11
5
3
6
12
19
28
38
48
59
69
80
90
100
109
115
116
110
101
91
81
70
60
49
39
29
20
13
21
30
40
50
61
71
82
92
102
111
112
103
93
83
72
62
51
41
52
63
73
74
85
84
94
-1
EOF
